c Lingeling SAT Solver
c 
c Version azf 92032848c138b2f33629ad24394d60a3787a1046
c 
c Copyright (C) 2010-2014 Armin Biere JKU Linz Austria.
c All rights reserved.
c 
c released Don Mai 22 22:08:00 CEST 2014
c compiled Mon Oct  6 05:55:43 PDT 2014
c 
c gcc (Ubuntu 4.8.2-19ubuntu1) 4.8.2
c -Wall -O3 -DNDBLSCR -DNLGLOG -DNDEBUG -DNCHKSOL -DNLGLPICOSAT -DNLGLDRUPLIG
c -DNLGLYALSAT
c Linux ubuntu 3.13.0-32-generic x86_64
c 
c reading input file benchmark-sat/translations/gc-myciel7-6.cnf
c no embedded options
c found 'p cnf 1146 17216' header
c read 1146 variables, 17216 clauses, 35196 literals in 0.00 seconds
c 
c  seconds         irredundant          redundant clauses agility   height
c          variables clauses conflicts large ternary binary    glue         MB
c 
c S    0.0    1146    17216         0       0      0     0   0  0.0   0.0    1
c S    1.0     955    14160      3559    3286      0  1910  12 14.5  27.8    2
c S    2.0     955    14160     18624    2970      0  1910  12 15.2  28.8    3
c P    5.0     955    14160     63003    4814      0  1910  12 15.3  28.3    2
c S   10.0     955    14160    132373    2937      0  1910  12 15.6  28.2    3
c S   20.0     955    14160    273780   14548      0  1910  12 16.1  29.0    5
c S   30.0     955    14160    384149   18726      0  1910  10 16.1  29.0    7
c S   40.0     955    14160    493002    4656      0  1910  13 16.2  29.0    2
c S   50.0     955    14160    648207    9464      0  1910  13 16.2  29.0    4
c S   60.0     955    14160    774827   11672      0  1910  12 16.1  29.0    5
c S  120.0     955    14160   1425239   34110      0  1910  12 16.0  28.8   13
c S  180.1     955    14160   1872270   55094      0  1910  12 16.1  28.8   16
c S  240.0     955    14160   2503316    4709      0  1910  13 16.1  28.9    3
c S  300.0     955    14160   3185008   29895      0  1910  12 16.1  29.1   11
c S  600.0     955    14160   5387312   45179      0  1910  11 16.3  29.1   19
c S  900.0     955    14160   6962691   91885      0  1910  12 16.4  29.1   28
